num_offers = 25;
num_halls = 10;
start=[15,15,26,70,4,21,5,35,5,37,61,4,59,27,55,78,4,5,39,43,63,35,13,32,15];
end=[29,17,99,74,82,36,14,51,50,49,76,10,82,94,83,79,75,78,92,79,65,40,22,71,52];
price=[680,75,3413,379,4469,351,976,426,865,932,1550,400,808,5544,2069,86,2364,5064,1529,1090,266,340,525,1883,2196];
requirement=[931,405,416,729,874,902,207,378,672,533,369,429,571,417,729,919,395,526,692,364,741,341,418,740,460];
capacity=[775,678,713,728,810,523,894,698,975,967];
